p cnf 19 20
17 12 -2 8 -11 -4 -5 -6 -9 0
11 -2 -12 -17 0
11 1 2 -9 0
4 10 0
-17 -8 0
-6 -13 0
-1 -5 -11 0
13 15 0
4 9 -1 -19 11 -14 -18 -3 10 7 17 -6 -13 -8 -15 -5 -16 -2 0
11 -13 -3 -17 -18 -2 15 -5 -14 0
1 13 8 -5 0
17 -6 -11 2 0
7 6 -1 -8 0
-16 -14 1 -11 -8 0
-10 -7 12 -8 0
12 11 -14 0
15 2 5 8 -4 -18 -9 19 -12 -1 13 -14 -16 0
12 -15 17 -7 13 2 11 -19 -14 -18 -5 -8 1 10 9 -4 -16 0
-7 8 -18 -11 -16 -12 -4 -10 6 5 -17 -14 15 0
3 17 -8 0
